8077
1, 22, 32, 45, 19, 10, 9, 8, 41, 3, 17, 18, 31, 21, 42, 7, 2, 30, 23, 20, 50, 29, 16, 44, 34, 37, 48, 24, 5, 15, 6, 4, 43, 33, 51, 11, 52, 14, 13, 47, 26, 27, 28, 12, 25, 46, 38, 40, 39, 36, 35, 49
